c Demonstration of unit clause propagation. Clause 1 is a unit clause over
c literal 1. Propagates to eliminate clauses 1 and 2, and removes the literal -1
c in clause 3, causing a conflict and UNSAT.

p cnf 2 5

1 0
1 2 0
-1 0

c To prevent pure literal elimination.
1 -1 0
2 -2 0
